Study1: Axial 65cm WC Radial 5 row SS + 3 row B4C
61$$  20  21 51 0  0  0  0  0  6  0
      0   0   e
62$$  0   3  53  540  708 217   3   4 220    0
      0  53  53    0   48   1   1   0   0    0
      15  20  20    3    1   0   1   0   0    0
      0   0   0    0    0   0   0   1   1    0
      0   0   0    0    0   0   1   1   1    1
      4  100  0    0    0   1   1   0   0    0
      0   0   0    0    0   4 175   e

63**  0.0  1.0  1.0E-4  1.0E-03  1.0e-05  1.0e-03
      1.0  0.2  1.5  10.0  1.0  1.03126 e
     t
     t
82** -0.308607 -0.218218 0.218218 -0.617213 -0.577350
  -0.218218   0.218218   0.577350  -0.816497  -0.786796
  -0.577350  -0.218218   0.218218   0.577350   0.786796
  -0.975900  -0.951190  -0.786796  -0.577350  -0.218218
   0.218218   0.577350   0.786796   0.951190  -0.308607
  -0.218218   0.218218  -0.617213  -0.577350  -0.218218
   0.218218   0.577350  -0.816497  -0.786796  -0.577350
  -0.218218   0.218218   0.577350   0.786796  -0.975900
  -0.951190  -0.786796  -0.577350  -0.218218   0.218218
   0.577350   0.786796   0.951190
83** -0.951190  -0.951190  -0.951190  -0.786796  -0.786796
  -0.786796  -0.786796  -0.786796  -0.577350  -0.577350
  -0.577350  -0.577350  -0.577350  -0.577350  -0.577350
  -0.218218  -0.218218  -0.218218  -0.218218  -0.218218
  -0.218218  -0.218218  -0.218218  -0.218218   0.951190
   0.951190   0.951190   0.786796   0.786796   0.786796
   0.786796   0.786796   0.577350   0.577350   0.577350
   0.577350   0.577350   0.577350   0.577350   0.218218
   0.218218   0.218218   0.218218   0.218218   0.218218
   0.218218   0.218218   0.218218
81** 0.000000   0.302469E-01   0.302469E-01   0.000000   0.226852E-01
 0.226852E-01   0.226852E-01   0.226852E-01   0.000000   0.226852E-01
 0.231481E-01   0.226852E-01   0.226852E-01   0.231481E-01 0.226852E-01
 0.000000   0.302469E-01   0.226852E-01   0.226852E-01   0.302469E-01
 0.302469E-01   0.226852E-01   0.226852E-01   0.302469E-01   0.000000
 0.302469E-01   0.302469E-01   0.000000   0.226852E-01   0.226852E-01
 0.226852E-01   0.226852E-01   0.000000   0.226852E-01   0.231481E-01
 0.226852E-01   0.226852E-01   0.231481E-01   0.226852E-01   0.000000
 0.302469E-01   0.226852E-01   0.226852E-01   0.302469E-01 0.302469E-01
 0.226852E-01   0.226852E-01   0.302469E-01

84$$  1  2  3  4  5  6  7  8  9  10  11  12  13  14  15  16  17  18  19
  20  21  22  23  24  25  26  27  28  29  30  31  32  33  34  35  36
  37  38  39  40  41  42  43  44  45  46  47  48  49  50  51  52  53 t

1** 2.65310E-06 1.33037E-06 1.84376E-06 5.94959E-06 1.07635E-05
 8.12578E-06 1.06568E-05 1.38994E-05 1.78674E-05 5.21292E-05
 3.67818E-05 4.60509E-05 1.28254E-04 1.92834E-04 2.83461E-04
 4.06723E-04 5.69810E-04 7.81593E-04 1.05049E-03 1.38479E-03
 1.79198E-03 2.27878E-03 2.85068E-03 3.51070E-03 1.33226E-03
 2.92674E-03 5.09586E-03 6.01485E-03 7.01175E-03 8.07331E-03
 9.19503E-03 1.03594E-02 1.15528E-02 2.67198E-02 3.14459E-02
 3.58493E-02 1.94083E-02 2.03086E-02 2.10934E-02 2.17826E-02
 2.23763E-02 2.28589E-02 1.54521E-02 3.90880E-03 3.89021E-03
 7.82020E-03 1.56982E-02 2.36838E-02 2.37545E-02 2.37399E-02
 2.36243E-02 2.34152E-02 2.31208E-02 2.27793E-02 2.23746E-02
 2.19168E-02 2.13537E-02 2.08493E-02 2.01945E-02 1.96209E-02
 1.89433E-02 3.58681E-02 1.41607E-02 1.89905E-02 1.55427E-02
 1.48644E-02 1.41889E-02 1.35277E-02 1.28814E-02 1.22429E-02
 1.16296E-02 1.10303E-02 1.04508E-02 9.88996E-03 9.34952E-03
 8.83453E-03 1.61976E-02 1.43788E-02 6.55960E-03 6.16660E-03
 1.12335E-02 9.89142E-03 1.06317E-03 3.97366E-04 8.17544E-04
 2.20643E-03 4.20364E-03 7.61932E-03 3.44709E-03 3.22306E-03
 3.01272E-03 2.81578E-03 2.62924E-03 2.45554E-03 2.29426E-03
 2.13750E-03 1.99763E-03 1.85942E-03 1.73726E-03 1.61646E-03
 1.50858E-03 1.40628E-03 1.30729E-03 1.22010E-03 2.69303E-03
 2.25124E-03 7.55286E-04 5.53542E-04 1.34283E-03 7.96857E-04
 1.76754E-03 6.29712E-04 9.07270E-04 7.55016E-04 8.48695E-04
 3.01768E-04 3.87645E-04 1.67871E-04 1.03163E-04 1.36253E-04
 6.44742E-05 6.21377E-05 1.73156E-04 2.48903E-04 3.78398E-04
 2.60631E-04 7.99085E-05 9.96241E-05 1.23571E-04 8.50299E-05
 5.84939E-05 2.59196E-05 1.43125E-05 1.23207E-05 1.06094E-05
 4.73513E-06 4.39445E-06 7.86146E-06 6.76761E-06 1.30800E-05
 8.99116E-06 6.18107E-06 4.24893E-06 2.92056E-06 2.00753E-06
 1.37977E-06 9.48513E-07 6.51844E-07 4.47961E-07 3.07983E-07
 2.11628E-07 1.45458E-07 9.99759E-08 6.87138E-08 4.72238E-08
 3.24612E-08 2.23087E-08 1.53328E-08 1.05355E-08 7.24369E-09
 4.97764E-09 3.42110E-09 2.35138E-09 1.61603E-09 1.11077E-09
 7.63306E-10 5.24678E-10 3.60581E-10 2.47810E-10 1.70368E-10
 1.17063E-10 8.04574E-11 5.53005E-11 1.07107E-10 1.44302E-11
 F0.0

2**49I 0.0 0I 100.0 38I 105.0 0I 181.1 1I 212.3 0I 214.3 1I 238.3
   0I 241.3 4I 301.3 1I 305.20 29I 310.7 1I 345.20 19I 383.7
   39I 520.70 1I 601.8 9I 606.80 9I 632.2 34I 644.5 29I 697.0
   59I 737.0 29I 838.0 9I 857.0 14I 867.0 1I 880.0 19I 884.5 39I 894.5
   9I 938.3 11I 948.3 15I 959.5 63I 986.0 13I 1106.0
   61I 1226.9 13I 1296.0 29I 1323.6 10I 1511.80 0I 1606.8 1I 1676.7
   6I 1682.2 4I 1736.80 1741.8

4**12I 0.0 8I 27.0 4I 41.74 19I 46.94 3I 78.75 11I 82.56 5I 108.00
   1I 114.00 25I 116.54 25I 154.04 25I 179.83 19I 204.62 59I 231.97
   19I 264.70 14I 273.50 9I 285.3 4I 288.3 89I 291.41 9I 328.60
   13I 337.5 4I 372.5 9I 375.5 129I 403.5 1I 669.40 671.90

8$$ 540R 43 49Q 540

    97R 43 443R 41

    540R 43 38Q 540

    540R 41

    540R 30 1Q 540

    540R 41

    540R 30 1Q 540

    13R 37 251R 37 10R 30 119R 37 5R 30 140R 37 2R 30

    13R 37 236R 30 15R 37 10R 30 119R 37 5R 30 140R 37 2R 30 4Q 540

    13R 37 216R 47 20R 30 15R 37 10R 30 119R 37 5R 30 140R 37 
    2R 30 1Q 540

    13R 37 9R 37 5R 48 20R 37 4R 49 12R 37 6R 50 160R 37 20R 30 15R 37 
    10R 30 119R 37 5R 30 140R 37 2R 30 29Q 540

    13R 37 251R 37 10R 30 119R 37 5R 30 140R 37 2R 30 1Q 540

    379R 33 159R 37 2R 30 19Q 540

    249R 32 130R 37 159R 37 2R 30 39Q 540

    249R 32 130R 23 159R 37 2R 30 1Q 540

    22R 6 5R 12 20R 6 4R 12 20R 6 26R 6 26R 16 26R 16 20R 6 80R 23
    30R 23 90R 20 169R 37 2R 30 9Q 540

    22R 5 5R 12 20R 5 4R 12 20R 5 26R 13 26R 8 26R 19 20R 5 80R 26
    30R 26 90R 21 169R 37 2R 30 9Q 540

    22R 5 5R 12 20R 5 4R 12 20R 5 26R 14 26R 8 26R 19 20R 5 80R 26
    30R 26 90R 7 169R 37 2R 30 34Q 540

    22R 3 5R 12 20R 3 4R 12 20R 3 26R 4 26R 8 26R 8 20R 3 80R 26
    30R 26 90R 7 169R 37 2R 30 29Q 540

    22R 1 5R 12 20R 1 4R 12 20R 2 26R 4 26R 17 26R 8 20R 2 80R 26
    30R 26 90R 7 169R 37 2R 30 59Q 540

    22R 5 5R 10 20R 5 4R 10 20R 5 26R 4 26R 17 26R 8 20R 5 80R 26
    30R 26 90R 7 169R 38 2R 30 29Q 540

    22R 5 5R 10 20R 5 4R 10 20R 5 26R 14 26R 17 26R 8 20R 5 80R 26
    30R 26 90R 7 169R 38 2R 30 9Q 540

    22R 5 5R 10 20R 5 4R 10 20R 5 26R 15 26R 18 26R 8 20R 5 80R 26
    30R 26 90R 7 169R 38 2R 30 14Q 540

    22R 38 5R 10 20R 38 4R 10 20R 38 26R 15 26R 18 26R 8 20R 38 80R 26
    30R 26 90R 7 169R 38 2R 30 1Q 540

    22R 9 5R 10 20R 9 4R 10 20R 9 26R 9 26R 9 26R 8 20R 9 80R 26
    30R 26 90R 7 169R 38 2R 30 19Q 540

    22R 53 5R 10 20R 53 4R 10 20R 53 26R 53 26R 9 26R 8 20R 53 80R 26
    30R 26 90R 7 169R 38 2R 30 39Q 540

    22R 53 5R 10 20R 53 4R 10 20R 53 26R 53 26R 9 26R 19 20R 53 80R 26
    30R 26 90R 7 169R 38 2R 30 9Q 540

    22R 53 5R 12 20R 53 4R 12 20R 53 26R 53 26R 9 26R 19 20R 53 80R 26
    30R 26 90R 7 169R 38 2R 30 11Q 540                                  

    22R 25 5R 25 20R 25 4R 25 20R 25 26R 25 26R 25 26R 25 20R 25 80R 24
    30R 24 90R 22 169R 38 2R 30 15Q 540

    538R 38 2R 30 63Q 540

    97R 30 441R 38 2R 30 13Q 540

    538R 38 2R 30 61Q 540

    97R 30 441R 38 2R 30 13Q 540

    538R 38 2R 30 29Q 540

    538R 38 2R 30 10Q 540

    538R 40 2R 41

    398R 40 142R 34 1Q 540

    398R 40 142R 41 6Q 540

    398R 34 142R 41 4Q 540

9$$ -1  -5  -9  -13  -17  -21  -25  -29  -33  -37  -41  -45  -49  -53
    -57  -61  -65  -69  -73  -77  -81  -85  -89  -93  -97 -101  -105
    -109 -113 -117 -121 -125 -129 -133 -137 -141 -145 -149 -153 -157
    -161 -165 -169 -173 -177 -181 -185 -189 -193 -197 -201 -205 -209
     t
     t
