Axial 12cm B4C + 65cm SS + 8cm B4C; Radial 8 row FeB
61$$  0  21 51 0  0  0  0  0  6  0
      0   0   e
62$$  0   3  53  330  433 662   3   4 665    0
      0  53  53    0   16   1   1   0   0    0
      10   5   5    3    1   0   1   0   3    0
      0   0   0    0    0   0   0   1   1    0
      0   0   0    0    0   0   1   1   1    1
      4  100  0    0    0   1   1   0   0    0
      0   0   0    0    0   4 620   e

63**  0.0  1.0  1.0E-4  1.0E-03  1.0e-05  1.0e-03
      1.0  0.2  1.5  10.0  1.0  1.03126 e
     t
     t
82** -4.71404E-01 -3.33333E-01  3.33333E-01 -9.42809E-01
 -8.81917E-01 -3.33333E-01  3.33333E-01  8.81917E-01
 -4.71404E-01 -3.33333E-01  3.33333E-01 -9.42809E-01
 -8.81917E-01 -3.33333E-01  3.33333E-01  8.81917E-01
83** -8.81917E-01 -8.81917E-01 -8.81917E-01 -3.33333E-01
 -3.33333E-01 -3.33333E-01 -3.33333E-01 -3.33333E-01
  8.81917E-01  8.81917E-01  8.81917E-01  3.33333E-01
  3.33333E-01  3.33333E-01  3.33333E-01  3.33333E-01
81** 0.00000E+00  8.33333E-02  8.33333E-02  0.00000E+00
  8.33333E-02  8.33333E-02  8.33333E-02  8.33333E-02
  0.00000E+00  8.33333E-02  8.33333E-02  0.00000E+00
  8.33333E-02  8.33333E-02  8.33333E-02  8.33333E-02

84$$  1  2  3  4  5  6  7  8  9  10  11  12  13  14  15  16  17  18  19
  20  21  22  23  24  25  26  27  28  29  30  31  32  33  34  35  36
  37  38  39  40  41  42  43  44  45  46  47  48  49  50  51  52  53 t

1**  4.9944E-06 3.9742E-07 4.2884E-07 4.6264E-07 4.9922E-07 5.3857E-07
 5.8115E-07 6.2696E-07 6.7653E-07 7.2986E-07 7.8739E-07 8.4911E-07
 9.1588E-07 9.8767E-07 1.0653E-06 1.1488E-06 1.2392E-06 1.3363E-06
 1.4414E-06 1.5544E-06 1.6762E-06 1.8069E-06 1.9481E-06 2.1000E-06
 2.2641E-06 2.4406E-06 2.6313E-06 2.8364E-06 3.0582E-06 3.2965E-06
 3.5533E-06 3.8284E-06 4.1257E-06 4.4452E-06 4.7903E-06 5.1613E-06
 5.5620E-06 5.9927E-06 6.4581E-06 6.9581E-06 7.4962E-06 8.0723E-06
 8.6944E-06 9.3625E-06 1.0084E-05 1.0859E-05 1.1696E-05 1.2595E-05
 1.3565E-05 1.4608E-05 1.5729E-05 1.6928E-05 1.8223E-05 1.9612E-05
 2.1112E-05 2.2722E-05 2.4459E-05 2.6324E-05 2.8337E-05 3.0498E-05
 3.2817E-05 3.5295E-05 3.7966E-05 4.0832E-05 4.3923E-05 4.7239E-05
 5.0814E-05 5.4650E-05 5.8787E-05 6.3225E-05 6.7985E-05 7.3067E-05
 7.8544E-05 8.4415E-05 9.0743E-05 9.7527E-05 1.0484E-04 1.1267E-04
 1.2112E-04 1.3017E-04 1.3972E-04 1.5012E-04 1.6128E-04 1.7326E-04
 1.8612E-04 1.9992E-04 2.1473E-04 2.3063E-04 2.4768E-04 2.6598E-04
 2.8562E-04 3.0668E-04 3.2927E-04 3.5350E-04 3.7948E-04 4.0735E-04
 4.3722E-04 4.6925E-04 5.0358E-04 5.4036E-04 5.7978E-04 6.2200E-04
 6.6721E-04 7.1563E-04 7.6746E-04 8.2293E-04 8.8228E-04 9.4575E-04
 1.0136E-03 1.0862E-03 1.1637E-03 1.2465E-03 1.3350E-03 1.4294E-03
 1.5301E-03 1.6376E-03 1.7522E-03 1.8743E-03 2.0045E-03 2.1431E-03
 2.2907E-03 2.4479E-03 2.6151E-03 2.7930E-03 2.9822E-03 3.1834E-03
 3.3972E-03 3.6245E-03 3.8659E-03 4.1224E-03 4.3947E-03 4.6839E-03
 4.9910E-03 5.3168E-03 5.6627E-03 6.0296E-03 6.4188E-03 6.8315E-03
 7.2690E-03 7.7326E-03 8.2237E-03 8.7436E-03 9.2938E-03 9.8755E-03
 1.0490E-02 1.1138E-02 1.1822E-02 1.2542E-02 1.3298E-02 1.4092E-02
 1.4923E-02 1.5791E-02 1.6694E-02 1.7632E-02 1.8603E-02 1.9602E-02
 2.0626E-02 2.1670E-02 2.2728E-02 2.3793E-02 2.4856E-02 2.5908E-02
 2.6940E-02 2.7943E-02 2.8906E-02 2.9822E-02 3.0682E-02 3.1474E-02
 3.2188E-02 3.2796E-02 1.3262E-02 1.3325E-02 1.3377E-02 1.3417E-02
 1.3443E-02 1.3454E-02 1.3447E-02 1.0068E-02 1.0043E-02 1.0008E-02
 9.9603E-03 8.2531E-03 8.1984E-03 8.1328E-03 8.0570E-03 7.9700E-03
 7.8693E-03 7.7536E-03 7.6238E-03 5.9964E-03 5.8972E-03 5.7901E-03
 5.6744E-03 5.5496E-03 5.4151E-03 2.6539E-03 3.9100E-03 3.8206E-03
 2.4949E-03 2.4511E-03 2.4057E-03 2.3584E-03 2.3092E-03 2.2579E-03
 2.2044E-03 2.1485E-03 2.0901E-03 1.5276E-03 1.4919E-03 1.4549E-03
 1.4164E-03 9.2214E-04 9.0386E-04 8.8503E-04 8.6566E-04 6.7834E-04
 6.6524E-04 6.5179E-04 6.3798E-04 6.2378E-04 6.0916E-04 5.9410E-04
 4.3540E-04 4.2644E-04 4.1725E-04 4.0781E-04 3.3245E-04 3.2555E-04
 3.1848E-04 3.1122E-04 3.0376E-04 2.9610E-04 2.8820E-04 2.8005E-04
 2.1799E-04 2.1246E-04 2.0676E-04 2.0088E-04 1.9481E-04 1.8853E-04
 9.1838E-05 1.3464E-04 1.3079E-04 8.4994E-05 8.3189E-05 8.1343E-05
 7.9451E-05 7.7510E-05 7.5518E-05 7.3468E-05 7.1358E-05 6.9180E-05
 5.0411E-05 4.9113E-05 4.7777E-05 4.6399E-05 3.0147E-05 2.9503E-05
 2.8843E-05 2.8168E-05 2.2041E-05 2.1589E-05 2.1127E-05 2.0654E-05
 2.0171E-05 1.9675E-05 1.9166E-05 1.4032E-05 1.3731E-05 1.3423E-05
 1.3109E-05 1.0678E-05 1.0449E-05 1.0215E-05 9.9749E-06 9.7292E-06
 9.4771E-06 9.2180E-06 8.9513E-06 6.9635E-06 6.7829E-06 6.5974E-06
 6.4064E-06 6.2096E-06 6.0062E-06 2.9246E-06 4.2861E-06 4.1620E-06
 2.7038E-06 2.6457E-06 2.5863E-06 2.5255E-06 2.4632E-06 2.3992E-06
 2.3335E-06 2.2659E-06 2.1962E-06 1.6000E-06 1.5585E-06 1.5158E-06
 1.4718E-06 9.5614E-07 9.3558E-07 9.1454E-07 8.9302E-07 6.9871E-07
 6.8431E-07 6.6959E-07 6.5455E-07 6.3915E-07 6.2337E-07 6.0718E-07
 4.4450E-07 4.3494E-07 4.2517E-07 4.1516E-07 3.3815E-07 3.3088E-07
 3.2344E-07 3.1583E-07 3.0804E-07 3.0003E-07 2.9181E-07 2.8335E-07
 2.2042E-07 2.1469E-07 2.0881E-07 2.0275E-07 1.9651E-07 1.9007E-07
 9.2547E-08 1.3563E-07 1.3169E-07 8.5552E-08 8.3712E-08 8.1830E-08
 7.9904E-08 7.7930E-08 7.5905E-08 7.3825E-08 7.1684E-08 6.9477E-08
 5.0615E-08 4.9301E-08 4.7949E-08 4.6557E-08 3.0245E-08 2.9594E-08
 2.8928E-08 2.8247E-08 2.2100E-08 2.1645E-08 2.1179E-08 2.0703E-08
 2.0216E-08 1.9717E-08 1.9204E-08 1.4059E-08 1.3756E-08 1.3447E-08
 1.3131E-08 1.0695E-08 1.0465E-08 1.0230E-08 9.9888E-09 9.7421E-09
 9.4890E-09 9.2289E-09 8.9613E-09 6.9709E-09 6.7898E-09 6.6037E-09
 6.4122E-09 6.2148E-09 6.0109E-09 2.9268E-09 4.2892E-09 4.1648E-09
 2.7055E-09 2.6473E-09 2.5878E-09 2.5269E-09 2.4645E-09 2.4004E-09
 2.3346E-09 2.2669E-09 2.1971E-09 1.6006E-09 1.5591E-09 1.5163E-09
 1.4723E-09 9.5645E-10 9.3587E-10 9.1481E-10 8.9327E-10 6.9188E-10
 6.6364E-10 6.3540E-10 6.0716E-10 5.7892E-10 5.5068E-10 5.2244E-10
 3.7330E-10 3.5741E-10 3.4153E-10 3.2564E-10 2.5924E-10 2.4820E-10
 2.3717E-10 2.2614E-10 2.1511E-10 2.0408E-10 1.9305E-10 1.8202E-10
 1.3767E-10 1.3061E-10 1.2355E-10 1.1649E-10 1.0943E-10 1.0237E-10
 4.8538E-11 6.9497E-11 6.5526E-11 4.1478E-11 3.9713E-11 3.7948E-11
 3.6183E-11 3.4418E-11 3.2653E-11 3.0888E-11 2.9123E-11 2.7358E-11
 1.9360E-11 1.8367E-11 1.7374E-11 1.6382E-11 1.0369E-11 9.9282E-12
 9.4869E-12 9.0457E-12 6.9188E-12 6.6364E-12 6.3540E-12 6.0716E-12
 5.7892E-12 5.5068E-12 5.2244E-12 3.7330E-12 3.5741E-12 3.4153E-12
 3.2564E-12 2.5924E-12 2.4820E-12 2.3717E-12 2.2614E-12 2.1511E-12
 2.0408E-12 1.9305E-12 1.8202E-12 1.3767E-12 1.3061E-12 1.2355E-12
 1.1649E-12 1.0943E-12 1.0237E-12 4.8538E-13 6.9497E-13 6.5526E-13
 4.1478E-13 3.9713E-13 3.7948E-13 3.6183E-13 3.4418E-13 3.2653E-13
 3.0888E-13 2.9123E-13 2.7358E-13 1.9360E-13 1.8367E-13 1.7374E-13
 1.6382E-13 1.0369E-13 9.9282E-14 9.4869E-14 9.0457E-14 6.9188E-14
 6.6364E-14 6.3540E-14 6.0716E-14 5.7892E-14 5.5068E-14 5.2244E-14
 3.7330E-14 3.5741E-14 3.4153E-14 3.2564E-14 2.5924E-14 2.4820E-14
 2.3717E-14 2.2614E-14 2.1511E-14 2.0408E-14 1.9305E-14 1.8202E-14
 1.3767E-14 1.3061E-14 1.2355E-14 1.1649E-14 1.0943E-14 1.0237E-14
 4.8538E-15 6.9497E-15 6.5526E-15 4.1478E-15 3.9713E-15 3.7948E-15
 3.6183E-15 3.4418E-15 3.2653E-15 3.0888E-15 2.9123E-15 2.7358E-15
 1.9360E-15 1.8367E-15 1.7374E-15 1.6381E-15 1.0369E-15 9.9282E-16
 9.4869E-16 9.0457E-16 6.9188E-16 6.6364E-16 6.3540E-16 6.0716E-16
 5.7892E-16 5.5068E-16 5.2244E-16 3.7330E-16 3.5741E-16 3.4153E-16
 3.2564E-16 2.5924E-16 2.4820E-16 2.3717E-16 2.2614E-16 2.1511E-16
 2.0408E-16 1.9305E-16 1.8202E-16 1.3767E-16 1.3061E-16 1.2355E-16
 1.1649E-16 1.0943E-16 1.0237E-16 4.8538E-17 6.9497E-17 6.5526E-17
 4.1478E-17 3.9713E-17 3.7948E-17 3.6183E-17 3.4418E-17 3.2653E-17
 3.0888E-17 2.9123E-17 2.7358E-17 1.9360E-17 1.8367E-17 1.7374E-17
 1.6381E-17 1.0369E-17 9.9282E-18 9.4869E-18 9.0457E-18 6.9188E-18
 6.6364E-18 6.3540E-18 6.0716E-18 5.7892E-18 5.5068E-18 5.2244E-18
 3.7330E-18 3.5741E-18 3.4153E-18 3.2564E-18 2.5924E-18 2.4820E-18
 2.3717E-18 2.2614E-18 2.1511E-18 2.0408E-18 1.9305E-18 1.8202E-18
 1.3767E-18 1.3061E-18 1.2355E-18 1.1649E-18 1.0943E-18 1.0237E-18
 4.8538E-19 6.9497E-19 6.5526E-19 4.1478E-19 3.9713E-19 3.7948E-19
 3.6183E-19 3.4418E-19 3.2653E-19 3.0888E-19 2.9123E-19 2.7358E-19
 1.9360E-19 1.8367E-19 1.7374E-19 1.6382E-19 1.0369E-19 9.9282E-20
 9.4869E-20 9.7296E-19 F0.0

2** 1I 0.0 0I 3.0 1I 63.0 1I 66.9 9I 72.4 1I 106.9 19I 145.4 39I 282.4 
    1I 363.5 9I 368.5 5I 393.9 25I 406.2 19I 458.7 49I 498.7 9I 599.7 
    4I 618.7 5I 628.7 1I 641.7 11I 646.2 39I 658.2 19I 700.0 7I 723.2 
    7I 731.2 39I 757.7 9I 867.7 29I 888.6 13I 1057.7 24I 1085.3 
    9I 1273.5 1368.5

4** 12I 0.0 6I 27.0 4I 41.74 14I 46.94 3I 78.75 11I 82.56 2I 108.00
    0I 114.00 18I 116.54 19I 154.04 24I 179.83 12I 204.62 32I 231.97
    8I 264.70 11I 273.50 2I 285.3 2I 288.3 36I 291.41 8I 328.60
    9I 337.5 1I 372.5 6I 375.5 65I 403.5 1I 669.40 671.90

8$$ 330R 30 1Q 330
    
    191R 37 3R 30 59R 37 2R 30 73R 37 2R 30
    
    13R 37 166R 30 12R 37 3R 30 59R 37 2R 30 73R 37 2R 30 1Q 330
    
    13R 37 157R 47 9R 30 12R 37 3R 30 59R 37 2R 30 73R 37 2R 30 1Q 330
    
    20R 37 5R 48 15R 37 4R 49 12R 37 3R 50 111R 37 9R 30 12R 37 
    3R 30 59R 37 2R 30 73R 37 2R 30 9Q 330
    
    191R 37 3R 30 59R 37 2R 30 73R 37 2R 30 1Q 330
    
    243R 33 85R 37 2R 30 19Q 330
    
    179R 32 149R 37 2R 30 39Q 330
    
    179R 32 64R 23 85R 37 2R 30 1Q 330
    
    20R 6 5R 12 15R 6 4R 12 16R 6 19R 6 20R 16 25R 16 13R 6 97R 23 
    94R 37 2R 30 9Q 330
    
    20R 5 5R 12 15R 5 4R 12 16R 5 19R 13 20R 8 25R 19 13R 5 97R 35 
    94R 37 2R 30 5Q 330
    
    20R 5 5R 12 15R 5 4R 12 16R 5 19R 14 20R 8 25R 19 13R 5 97R 35 
    94R 37 2R 30 25Q 330
    
    20R 3 5R 12 15R 3 4R 12 16R 3 19R 4 20R 8 25R 8 13R 3 97R 35 
    94R 37 2R 30 19Q 330
    
    20R 1 5R 12 15R 1 4R 12 16R 2 19R 4 20R 17 25R 8 13R 2 97R 35 
    94R 37 2R 30 49Q 330
    
    20R 5 5R 10 15R 5 4R 10 16R 5 19R 4 20R 17 25R 8 13R 5 97R 35 
    94R 38 2R 30 9Q 330
    
    20R 5 5R 10 15R 5 4R 10 16R 5 19R 14 20R 17 25R 8 13R 5 97R 35 
    94R 38 2R 30 4Q 330
    
    20R 5 5R 10 15R 5 4R 10 16R 5 19R 15 20R 18 25R 8 13R 5 97R 35 
    94R 38 2R 30 5Q 330
    
    20R 38 5R 10 15R 38 4R 10 16R 38 19R 15 20R 18 25R 8 13R 38 97R 35 
    94R 38 2R 30 1Q 330
    
    20R 9 5R 10 15R 9 4R 10 16R 9 19R 9 20R 9 25R 8 13R 9 97R 35 
    94R 38 2R 30 11Q 330
    
    20R 11 5R 10 15R 11 4R 10 16R 11 19R 11 20R 9 25R 8 13R 11 97R 35 
    94R 38 2R 30 39Q 330
    
    20R 11 5R 10 15R 11 4R 10 16R 11 19R 11 20R 9 25R 19 13R 11 97R 35 
    94R 38 2R 30 19Q 330
    
    20R 9 5R 12 15R 9 4R 12 16R 9 19R 9 20R 9 25R 19 13R 9 97R 35 
    94R 38 2R 30 7Q 330
    
    20R 25 5R 25 15R 25 4R 25 16R 25 19R 25 20R 25 25R 25 13R 25 
    97R 24 94R 38 2R 30 7Q 330
    
    328R 38 2R 30 39Q 330
    
    79R 30 249R 38 2R 30 9Q 330
    
    328R 38 2R 30 29Q 330
    
    79R 30 249R 38 2R 30 13Q 330
    
    328R 38 2R 30 34Q 330


9$$ -1  -5  -9  -13  -17  -21  -25  -29  -33  -37  -41  -45  -49  -53
    -57  -61  -65  -69  -73  -77  -81  -85  -89  -93  -97 -101  -105
    -109 -113 -117 -121 -125 -129 -133 -137 -141 -145 -149 -153 -157
    -161 -165 -169 -173 -177 -181 -185 -189 -193 -197 -201 -205 -209
     t
93** F 1.0 t
94** F 1.0 t
95** F 1.0 t
     t
