Core neutrons
61$$  0  21  51    0   23   0   0   0   6    0
      0   0   e
62$$  0   5  20 195  524 217   3   4 220    0
      0  20  20   0  210   1   1   0   0    0
      1  25  25   3    0   2   0   0   3    2
      0   0   0   0    0   0   0   1   1    2
      0   0   0   0    0   0   1   1   1    2
      4 200   2   0    0   1   1   0   0    0
      0   -1   0   0    0   4   e

63**  0.0  0.0  1.0E-4  1.0E-03  1.0e-05  1.0e-03
      1.0  0.2  1.5  10.0  1.0  1.0 -1.0 0.3 1.2 3.0E-2
      1.0E-4 0 0.3 1.0 2.0 0.6 0 1.0E-30 0 1 0.1 0.9 e
     t
     t
82** -2.26980E-01 -1.48890E-01  1.48890E-01 -5.01670E-01 -4.33400E-01
 -1.48880E-01  1.48880E-01  4.33400E-01 -7.33770E-01 -6.79420E-01
 -4.33400E-01 -1.48880E-01  1.48880E-01  4.33400E-01  6.79420E-01
 -9.01210E-01 -8.65070E-01 -6.79410E-01 -4.33400E-01 -1.48870E-01
  1.48870E-01  4.33400E-01  6.79410E-01  8.65070E-01 -9.81290E-01
 -9.66460E-01 -8.58440E-01 -6.74210E-01 -4.30080E-01 -1.47730E-01
  1.47730E-01  4.30080E-01  6.74210E-01  8.58440E-01  9.66460E-01
 -9.98630E-01 -9.83530E-01 -8.73610E-01 -6.86120E-01 -4.37680E-01
 -1.50340E-01  1.50340E-01  4.37680E-01  6.86120E-01  8.73610E-01
  9.83530E-01 -9.99960E-01 -9.84850E-01 -8.74770E-01 -6.87040E-01
 -4.38270E-01 -1.50540E-01  1.50540E-01  4.38270E-01  6.87040E-01
  8.74770E-01  9.84850E-01 -2.52980E-02 -1.99370E-02 -4.61060E-03
 -2.20510E-03 -6.62320E-04  6.62320E-04  2.20510E-03  4.61060E-03
  1.99370E-02 -5.72480E-02 -4.51130E-02 -1.04330E-02 -4.98970E-03
 -1.49870E-03  1.49870E-03  4.98970E-03  1.04330E-02  4.51130E-02
 -8.95760E-02 -7.05870E-02 -1.63240E-02 -7.80720E-03 -2.34500E-03
  2.34500E-03  7.80720E-03  1.63240E-02  7.05870E-02 -1.21920E-01
 -9.60740E-02 -2.22180E-02 -1.06260E-02 -3.19170E-03  3.19170E-03
  1.06250E-02  2.22180E-02  9.60740E-02 -1.54130E-01 -1.21460E-01
 -2.80890E-02 -1.34340E-02 -4.03500E-03  4.03500E-03  1.34340E-02
  2.80890E-02  1.21460E-01 -1.86210E-01 -1.46740E-01 -3.39340E-02
 -1.62300E-02 -4.87470E-03  4.87470E-03  1.62300E-02  3.39340E-02
  1.46740E-01 -2.18080E-01 -1.71850E-01 -3.97430E-02 -1.90080E-02
 -5.70910E-03  5.70910E-03  1.90080E-02  3.97430E-02  1.71850E-01
 -2.49710E-01 -1.96780E-01 -4.55070E-02 -2.17640E-02 -6.53710E-03
  6.53710E-03  2.17640E-02  4.55070E-02  1.96780E-01 -2.81100E-01
 -2.21510E-01 -5.12260E-02 -2.45000E-02 -7.35870E-03  7.35870E-03
  2.45000E-02  5.12260E-02  2.21510E-01 -3.12160E-01 -2.45980E-01
 -5.68870E-02 -2.72070E-02 -8.17190E-03  8.17190E-03  2.72070E-02
  5.68870E-02  2.45980E-01 -3.42910E-01 -2.70210E-01 -6.24900E-02
 -2.98870E-02 -8.97680E-03  8.97680E-03  2.98870E-02  6.24900E-02
  2.70210E-01 -5.01670E-01 -4.33400E-01 -1.48880E-01  1.48880E-01
  4.33400E-01 -7.33770E-01 -6.79420E-01 -4.33400E-01 -1.48880E-01
  1.48880E-01  4.33400E-01  6.79412E-01 -9.01210E-01 -8.65070E-01
 -6.79410E-01 -4.33400E-01 -1.48870E-01  1.48870E-01  4.33400E-01
  6.79410E-01  8.65070E-01 -9.81290E-01 -9.66460E-01 -8.58440E-01
 -6.74210E-01 -4.30080E-01 -1.47730E-01  1.47730E-01  4.30080E-01
  6.74210E-01  8.58440E-01  9.66460E-01 -9.98630E-01 -9.83530E-01
 -8.73610E-01 -6.86120E-01 -4.37680E-01 -1.50340E-01  1.50340E-01
  4.37680E-01  6.86120E-01  8.73610E-01  9.83530E-01 -9.99960E-01
 -9.84850E-01 -8.74770E-01 -6.87040E-01 -4.38270E-01 -1.50540E-01
  1.50540E-01  4.38270E-01  6.87040E-01  8.74770E-01  9.84550E-01
83** -9.73900E-01 -9.73900E-01 -9.73900E-01 -8.65060E-01 -8.65060E-01
 -8.65060E-01 -8.65060E-01 -8.65060E-01 -6.79400E-01 -6.79400E-01
 -6.79400E-01 -6.79400E-01 -6.79400E-01 -6.79400E-01 -6.79400E-01
 -4.33390E-01 -4.33390E-01 -4.33390E-01 -4.33390E-01 -4.33390E-01
 -4.33390E-01 -4.33390E-01 -4.33390E-01 -4.33390E-01 -1.92520E-01
 -1.92520E-01 -1.92520E-01 -1.92520E-01 -1.92520E-01 -1.92520E-01
 -1.92520E-01 -1.92520E-01 -1.92520E-01 -1.92520E-01 -1.92520E-01
 -5.23400E-02 -5.23400E-02 -5.23400E-02 -5.23400E-02 -5.23400E-02
 -5.23400E-02 -5.23400E-02 -5.23400E-02 -5.23400E-02 -5.23400E-02
 -5.23400E-02 -8.73000E-03 -8.73000E-03 -8.73000E-03 -8.73000E-03
 -8.73000E-03 -8.73000E-03 -8.73000E-03 -8.73000E-03 -8.73000E-03
 -8.73000E-03 -8.73000E-03  9.99680E-01  9.99680E-01  9.99680E-01
  9.99680E-01  9.99680E-01  9.99680E-01  9.99680E-01  9.99680E-01
  9.99680E-01  9.98360E-01  9.98360E-01  9.98360E-01  9.98360E-01
  9.98360E-01  9.98360E-01  9.98360E-01  9.98360E-01  9.98360E-01
  9.95980E-01  9.95980E-01  9.95980E-01  9.95980E-01  9.95980E-01
  9.95980E-01  9.95980E-01  9.95980E-01  9.95980E-01  9.92540E-01
  9.92540E-01  9.92540E-01  9.92540E-01  9.92540E-01  9.92540E-01
  9.92540E-01  9.92540E-01  9.92540E-01  9.88050E-01  9.88050E-01
  9.88050E-01  9.88050E-01  9.88050E-01  9.88050E-01  9.88050E-01
  9.88050E-01  9.88050E-01  9.82510E-01  9.82510E-01  9.82510E-01
  9.82510E-01  9.82510E-01  9.82510E-01  9.82510E-01  9.82510E-01
  9.82510E-01  9.75930E-01  9.75930E-01  9.75930E-01  9.75930E-01
  9.75930E-01  9.75930E-01  9.75930E-01  9.75930E-01  9.75930E-01
  9.68320E-01  9.68320E-01  9.68320E-01  9.68320E-01  9.68320E-01
  9.68320E-01  9.68320E-01  9.68320E-01  9.68320E-01  9.59680E-01
  9.59680E-01  9.59680E-01  9.59680E-01  9.59680E-01  9.59680E-01
  9.59680E-01  9.59680E-01  9.59680E-01  9.50030E-01  9.50030E-01
  9.50030E-01  9.50030E-01  9.50030E-01  9.50030E-01  9.50030E-01
  9.50030E-01  9.50030E-01  9.39370E-01  9.39370E-01  9.39370E-01
  9.39370E-01  9.39370E-01  9.39370E-01  9.39370E-01  9.39370E-01
  9.39370E-01  8.65060E-01  8.65060E-01  8.65060E-01  8.65060E-01
  8.65060E-01  6.79400E-01  6.79400E-01  6.79400E-01  6.79400E-01
  6.79400E-01  6.79400E-01  6.79400E-01  4.33390E-01  4.33390E-01
  4.33390E-01  4.33390E-01  4.33390E-01  4.33390E-01  4.33390E-01
  4.33390E-01  4.33390E-01  1.92520E-01  1.92520E-01  1.92520E-01
  1.92520E-01  1.92520E-01  1.92520E-01  1.92520E-01  1.92520E-01
  1.92520E-01  1.92520E-01  1.92520E-01  5.23400E-02  5.23400E-02
  5.23400E-02  5.23400E-02  5.23400E-02  5.23400E-02  5.23400E-02
  5.23400E-02  5.23400E-02  5.23400E-02  5.23400E-02  8.73000E-03
  8.73000E-03  8.73000E-03  8.73000E-03  8.73000E-03  8.73000E-03
  8.73000E-03  8.73000E-03  8.73000E-03  8.73000E-03  8.73000E-02
81** 0.00000E+00  1.66720E-02  1.66720E-02  0.00000E+00  2.44470E-02
  1.29240E-02  1.29240E-02  2.44470E-02  0.00000E+00  2.70170E-02
  8.55190E-03  1.92140E-02  1.92140E-02  8.55190E-03  2.70170E-02
  0.00000E+00  2.44470E-02  8.55190E-03  2.74740E-02  6.85850E-03
  6.85850E-03  2.74740E-02  8.55190E-03  2.44470E-02  0.00000E+00
  1.17560E-02  9.11340E-03  1.35490E-02  4.83640E-03  1.28540E-02
  1.28540E-02  4.83640E-03  1.35490E-02  9.11340E-03  1.17560E-02
  0.00000E+00  3.93140E-03  3.04760E-03  4.53100E-03  1.61730E-03
  4.29850E-03  4.29850E-03  1.61730E-03  4.53100E-03  3.04760E-03
  3.93140E-03  0.00000E+00  9.84320E-04  7.63040E-04  1.13450E-03
  4.04930E-04  1.07620E-03  1.07620E-03  4.04930E-04  1.13450E-03
  7.63040E-04  9.84320E-04  0.00000E+00  1.66820E-04  1.53650E-05
  8.77990E-06  6.58510E-06  6.58510E-06  8.77990E-06  1.53650E-05
  1.66820E-04  0.00000E+00  3.90650E-04  3.59810E-05  2.05600E-05
  1.54210E-05  1.54210E-05  2.05600E-05  3.59810E-05  3.90650E-04
  0.00000E+00  6.14480E-04  5.65970E-05  3.23410E-05  2.42560E-05
  2.42560E-05  3.23410E-05  5.65970E-05  6.14480E-04  0.00000E+00
  8.36200E-04  7.70180E-05  4.40100E-05  3.30080E-05  3.30080E-05
  4.40100E-05  7.70180E-05  8.36200E-04  0.00000E+00  1.05790E-03
  9.74390E-05  5.56800E-05  4.17610E-05  4.17610E-05  5.56800E-05
  9.74390E-05  1.05790E-03  0.00000E+00  1.27760E-03  1.17670E-04
  6.72400E-05  5.04310E-05  5.04310E-05  6.72400E-05  1.17670E-04
  1.27760E-03  0.00000E+00  1.49710E-03  1.37890E-04  7.87950E-05
  5.90970E-05  5.90970E-05  7.87950E-05  1.37890E-04  1.49710E-03
  0.00000E+00  1.71460E-03  1.57930E-04  9.02240E-05  6.76840E-05
  6.76840E-05  9.02440E-05  1.67930E-04  1.71460E-03  0.00000E+00
  1.93010E-03  1.77770E-04  1.01580E-04  7.61870E-05  7.61870E-05
  1.01580E-04  1.77770E-04  1.93010E-03  0.00000E+00  2.14540E-03
  1.97600E-04  1.12910E-04  8.46880E-05  8.46880E-05  1.12910E-04
  1.97600E-04  2.14540E-03  0.00000E+00  2.35660E-03  2.17050E-04
  1.24030E-04  9.30240E-05  9.30240E-05  1.24030E-04  2.17050E-04
  2.35660E-03  0.00000E+00  2.44470E-02  1.29240E-02  1.29240E-02
  2.44470E-02  0.00000E+00  2.70170E-02  8.55190E-03  1.92140E-02
  1.92140E-02  8.55190E-03  2.70170E-02  0.00000E+00  2.44470E-02
  8.55190E-03  2.74740E-02  6.85850E-03  6.85850E-03  2.74740E-02
  8.55190E-03  2.44470E-02  0.00000E+00  1.17560E-02  9.11340E-03
  1.35490E-02  4.83640E-03  1.28540E-02  1.28540E-02  4.83640E-03
  1.35490E-02  9.11340E-03  1.17560E-02  0.00000E+00  3.93140E-03
  3.04760E-03  4.53100E-03  1.61730E-03  4.29850E-03  4.29850E-03
  1.61730E-03  4.53100E-03  3.04760E-03  3.93140E-03  0.00000E+00
  9.84320E-04  7.63040E-04  1.13450E-03  4.04930E-04  1.07620E-03
  1.07620E-03  4.04930E-04  1.13450E-03  7.63040E-04  9.84320E-04

84$$  1  2  3  4  5  6  7  8  9  10  11  12  13  14  15  16  17
     18 19 20 t

1** 217R 0.0

2** 149I 0.0 29I 150.0 12I 210.8 31I 236.0 19I 301.0 50I 341.0
    20I 442.0 1I 484.0 1I 488.5 4I 492.5 15I 502.5 15I 535.0
    4I 567.5 10I 577.5 149I 600.0 750.0

4** 1I 0.0 1I 1.8 2I 3.28 0I 5.5 0I 6.76 1I 7.08 179I 9.4 
    3I 189.4 209.4

8$$ 195R 20 113Q 195
    67R 12 128R 20 35Q 195
    9R 1 2R 11 56R 12 128R 20 29Q 195
    9R 2 2R 11 56R 12 128R 20 12Q 195
    9R 3 2R 11 56R 12 128R 20 31Q 195
    9R 4 2R 11 56R 12 128R 20 19Q 195
    9R 5 2R 11 56R 12 128R 20 50Q 195
    9R 3 2R 11 56R 12 128R 20 20Q 195
    9R 6 2R 11 56R 12 128R 20 1Q 195
    9R 3 2R 11 56R 12 128R 20 1Q 195
    2R 7 2R 11 3R 7 1R 11 1R 10 2R 11 56R 12 128R 20 4Q 195
    2R 8 2R 11 3R 8 1R 11 1R 10 2R 11 56R 12 128R 20 15Q 195
    2R 8 2R 11 3R 8 1R 11 1R 10 2R 11 56R 12 128R 20 15Q 195
    2R 7 2R 11 3R 7 1R 11 1R 10 2R 11 56R 12 128R 20 4Q 195
    9R 9 2R 11 56R 12 128R 20 10Q 195
    67R 12 128R 20 34Q 195
    195R 20 114Q 195

9$$ -1  -7  -13  -19  -25  -31  -37  -43  -49  -55  -61  -67  -73  
    -79 -85 -91  -97  -103  -109 -115 t
93** F 1.0 t
94** F 1.0 t
95** F 1.0 t

96** 195R 1.0E-20 149Q 195
    195R 1.0E-20 29Q 195
    195R 1.0E-20 12Q 195 
    195R 1.0E-20 31Q 195 
    195R 1.0E-20 19Q 195 
    9R 1.0 186R 1.0E-20 50Q 195
    195R 1.0E-20 20Q 195 
    195R 1.0E-20 1Q 195
    195R 1.0E-20 1Q 195  
    195R 1.0E-20 4Q 195 
    195R 1.0E-20 15Q 195 
    195R 1.0E-20 15Q 195 
    195R 1.0E-20 4Q 195  
    195R 1.0E-20 10Q 195 
    195R 1.0E-20 149Q 195 t
    
98** 1.240E-02
6.317E-03
8.977E-03
2.987E-02
5.615E-02
4.358E-02
5.819E-02
7.712E-02
1.012E-01
3.020E-01
2.179E-01
2.758E-01
7.859E-01
1.208E+00
1.820E+00
2.677E+00
3.819E+00
5.337E+00
7.288E+00
9.793E+00
1.281E+01
1.648E+01
2.081E+01
2.587E+01
9.875E+00
2.179E+01
3.819E+01
4.537E+01
5.321E+01
6.161E+01
7.051E+01
8.006E+01
9.059E+01
2.203E+02
2.856E+02
3.517E+02
1.983E+02
2.106E+02
2.203E+02
2.285E+02
2.326E+02
2.342E+02
1.559E+02
3.901E+01
3.868E+01
7.737E+01
1.534E+02
2.269E+02
2.195E+02
2.138E+02
2.081E+02
2.008E+02
1.934E+02
1.877E+02
1.812E+02
1.746E+02
1.673E+02
1.608E+02
1.542E+02
1.485E+02
1.420E+02
2.644E+02
1.028E+02
1.371E+02
1.110E+02
1.053E+02
1.004E+02
9.467E+01
8.977E+01
8.487E+01
8.022E+01
7.565E+01
7.133E+01
6.716E+01
6.325E+01
5.957E+01
1.085E+02
9.548E+01
4.342E+01
4.064E+01
7.361E+01
6.439E+01
6.896E+00
2.579E+00
5.296E+00
1.428E+01
2.718E+01
4.905E+01
2.212E+01
2.057E+01
1.918E+01
1.787E+01
1.665E+01
1.559E+01
1.453E+01
1.347E+01
1.257E+01
1.167E+01
1.094E+01
1.012E+01
9.467E+00
8.814E+00
8.161E+00
7.606E+00
1.673E+01
1.396E+01
4.676E+00
3.419E+00
8.324E+00
4.913E+00
1.085E+01
3.868E+00
5.574E+00
4.627E+00
5.198E+00
1.844E+00
2.367E+00
1.028E+00
6.300E-01
8.324E-01
3.934E-01
3.795E-01
1.053E+00
1.518E+00
2.301E+00
1.583E+00
4.864E-01
6.064E-01
7.516E-01
5.166E-01
3.558E-01
1.575E-01
8.732E-02
7.484E-02
6.447E-02
2.873E-02
2.669E-02
4.774E-02
4.113E-02
7.941E-02
5.460E-02
3.754E-02
2.579E-02
1.771E-02
1.216E-02
8.406E-03
5.753E-03
3.958E-03
2.718E-03
1.869E-03
1.281E-03
8.814E-04
6.072E-04
4.170E-04
2.864E-04
1.967E-04
1.355E-04
9.303E-05
6.398E-05
4.399E-05
3.020E-05
2.073E-05
1.428E-05
9.793E-06
6.741E-06
4.635E-06
3.183E-06
2.187E-06
1.502E-06
1.036E-06
7.108E-07
4.880E-07
3.354E-07
6.504E-07
8.732E-08 42R 0.0 t
t